50
17808

294 236
931 506
162 389
642 467
531 764
853 683
976 833
180 68
456 102
251 481
179 862
939 606
272 199
821 742
832 170
94 555
694 325
320 613
712 4
581 909
828 326
693 791
667 912
887 727
274 822
116 831
204 771
514 988
505 42
961 677
912 224
730 775
883 39
882 166
458 470
671 435
138 4
989 510
118 589
431 88
316 457
13 868
760 561
865 389
938 574
157 627
313 570
472 559
891 663
679 28
